100 10
513 636
187 260
593 648
563 481
730 583
765 383
768 473
386 823
612 570
482 581
802 316
622 530
544 573
297 305
600 668
611 375
476 323
665 623
366 877
659 609
851 603
646 636
796 224
265 880
497 423
463 450
753 844
862 862
266 580
432 514
405 585
537 464
595 754
517 795
545 527
635 649
887 791
414 158
428 940
421 431
472 236
487 880
621 781
723 704
403 429
432 629
686 455
500 667
572 634
557 651
752 318
427 204
930 105
521 226
747 472
445 508
588 299
607 742
596 399
393 235
238 158
598 708
394 604
884 881
566 600
791 374
452 699
753 531
413 577
482 465
70 527
741 377
164 482
580 35
182 605
548 324
232 367
193 454
301 364
585 779
500 760
514 531
471 327
734 484
510 415
417 165
785 316
599 654
507 584
432 502
803 820
632 367
890 418
818 785
716 439
471 514
228 801
676 470
410 641
497 466
